x
1
6
8
6
8
6
8
6
8
6
8
16
13
14
11
14
11
14
17
14
17
14
13
14
13
14
13
14
13
23
25
23
25
23
25
23
25
23
25
23
25
23
25
23
25
23
25
13
16
13
16
13
16
13
16
8
16
8
4
2
4
2
3
2
3
2
3
2
3
5
9
10
9
10
9
10
9
10
9
10
9
10
9
10
9
10
9
10
12
15
19
15
19
15
19
15
19
15
19
15
19
15
19
15
19
15
19
15
12
15
12
27
37
39
47
51
47
51
47
51
47
51
47
51
47
51
39
34
40
43
40
43
40
43
40
43
40
43
41
38
41
38
41
38
43
48
46
48
46
52
53
52
53
54
53
54
53
54
53
54
53
54
53
54
53
54
46
44
42
49
55
49
55
49
42
49
44
46
44
46
44
46
44
46
54
46
43
46
43
38
35
32
30
32
30
32
30
32
30
32
30
32
30
35
38
31
38
31
38
31
38
31
38
31
38
31
34
39
34
39
34
39
34
31
34
31
34
31
34
31
30
50
49
50
49
50
49
50
49
50
56
58
56
58
56
58
56
58
56
58
56
51
61
67
66
67
66
67
61
67
61
67
61
51
37
51
37
27
37
27
37
27
29
22
29
22
29
22
29
22
29
22
29
22
29
22
29
22
29
22
29
22
29
22
28
33
28
33
28
33
28
33
28
33
28
33
28
45
57
45
57
64
70
64
70
64
57
64
57
64
57
60
57
60
57
60
57
60
57
60
57
60
69
74
69
74
69
74
69
74
69
74
69
74
69
74
78
75
78
75
78
75
78
75
78
75
78
75
78
72
78
72
78
72
78
72
74
72
74
72
74
72
74
72
76
80
87
80
87
80
76
80
76
80
76
80
76
80
76
80
76
80
76
80
76
80
71
25
71
82
62
59
62
59
62
36
62
36
62
36
63
36
63
36
63
36
63
65
85
86
85
86
85
86
85
86
85
86
85
98
90
94
99
101
99
101
99
101
99
101
99
101
99
101
104
101
104
101
104
111
104
111
94
90
94
90
94
90
94
90
94
90
94
90
94
90
89
90
89
90
89
82
71
82
71
82
71
82
71
72
60
28
18
21
18
21
18
21
18
21
24
26
24
26
24
26
24
26
24
26
24
21
24
21
24
60
68
73
68
73
68
73
68
73
68
73
68
73
68
73
68
73
68
73
68
73
50
30
50
73
50
12
50
12
50
12
5
12
60
77
79
81
79
81
79
81
79
81
79
81
79
81
79
77
79
77
79
77
84
77
84
83
88
92
95
96
95
96
95
96
95
97
95
97
95
97
95
97
95
97
95
97
95
92
88
92
88
92
88
92
93
92
93
92
93
92
93
92
93
92
93
91
93
91
103
102
103
102
103
102
103
91
103
91
103
91
103
91
103
106
105
106
105
107
108
107
108
105
108
105
108
105
108
105
110
112
110
112
110
112
110
115
116
117
116
117
116
117
115
117
121
120
121
120
121
120
121
120
121
120
121
120
121
117
121
117
121
117
121
117
121
129
135
129
135
129
135
133
135
133
135
133
135
133
143
148
143
148
143
148
143
148
143
148
143
148
143
148
143
148
143
148
155
151
155
151
155
151
155
151
155
151
155
151
155
151
155
151
155
151
155
151
155
151
147
152
153
150
144
150
144
153
157
154
157
154
157
154
157
154
157
153
157
153
157
144
141
144
141
144
141
144
157
144
157
144
157
152
147
152
147
152
147
152
147
152
147
158
159
158
159
158
159
158
159
158
159
158
162
167
170
167
170
167
170
167
170
167
170
167
168
165
168
165
168
165
168
165
168
165
168
165
168
165
168
165
167
162
167
162
167
162
166
171
166
171
185
180
178
180
178
180
185
180
185
180
185
180
185
180
185
180
185
180
185
180
185
171
185
171
185
171
162
171
162
171
162
171
162
171
162
171
181
177
181
177
181
177
181
177
181
177
181
177
181
177
181
184
181
184
181
184
188
191
189
191
189
191
189
191
189
191
189
192
189
192
189
192
189
192
188
192
188
192
188
192
188
192
188
192
188
192
190
187
186
183
186
183
186
187
190
187
190
187
190
187
190
187
190
187
190
187
190
187
190
187
179
172
179
172
179
172
179
172
179
172
169
172
169
172
169
172
169
172
169
172
169
176
182
176
182
169
163
161
163
161
164
161
164
161
164
161
164
161
164
161
164
161
164
169
164
149
146
149
146
149
146
142
146
142
146
142
146
142
146
142
146
142
146
140
137
140
137
140
137
140
145
140
145
140
145
140
145
140
145
140
145
146
145
146
138
139
138
139
138
139
138
139
138
139
138
139
138
139
138
134
132
134
132
134
132
134
132
134
132
134
127
125
126
125
126
125
126
125
126
125
126
125
126
127
126
127
126
134
130
134
130
134
130
156
164
174
173
174
173
174
173
174
173
174
173
174
173
174
173
174
173
175
173
175
192
193
175
182
194
182
194
182
194
182
194
182
194
182
194
182
164
156
164
156
130
156
130
156
130
156
130
156
130
156
130
111
89
98
85
98
89
111
114
113
109
113
109
113
109
113
109
113
109
114
109
114
109
114
119
122
119
122
118
131
136
131
136
131
136
131
133
128
123
124
123
124
123
124
123
124
123
124
123
124
128
124
128
124
128
124
133
131
133
131
133
131
133
131
133
131
133
148
160
148
160
147
122
118
122
114
111
114
111
114
111
114
111
130
111
63
65
20
65
20
65
20
65
20
65
20
65
20
65
20
63
20
63
20
63
111
63
111
63
71
72
60
83
84
83
100
110
100
110
100
110
100
110
100
83
100
83
100
83
100
83
100
83
60
12
7
8
7
8
7
8
7
8
7
3
7
12
7
12
7
71
63
7
1
7
1
7
1
122
160
193
175
182
175
193
175
193
175
193
175
193
175
193
160
193
160
193
160
124
122
1
122
1
122
1
122
1
122
1
122
1
